c clasp version 2.1.1
c Reading from pb_400_05.cnf
c Solving...
s SATISFIABLE

c Models        : 1+    
c Time          : 335.962s (Solving: 333.46s 1st Model: 333.46s Unsat: 0.00s)
c CPU Time      : 335.420s
c Choices       : 3210585
c Conflicts     : 483151
c Restarts      : 1305   (Average: 370.23 Last: 137)

c Variables     : 600845 (Eliminated: 190804 Frozen:    0)
c Constraints   : 805527 (Binary: 62.6% Ternary: 36.7% Other:  0.6%)
c Lemmas        : 483151 (Binary:  0.2% Ternary:  1.2% Other: 98.6%)
c   Conflict    : 483151 (Average Length: 77.3) 
c   Loop        : 0      (Average Length: 0.0) 
c   Other       : 0      (Average Length: 0.0)
c   Deleted     : 441346
